(set-info :smt-lib-version 2.6)
(set-logic UF)
(set-info :source |Benchmarks from the paper: "Extending Sledgehammer with SMT Solvers" by Jasmin Blanchette, Sascha Bohme, and Lawrence C. Paulson, CADE 2011.  Translated to SMT2 by Andrew Reynolds and Morgan Deters.|)
(set-info :category "industrial")
(set-info :status unknown)
(declare-sort S1 0)
(declare-sort S2 0)
(declare-sort S3 0)
(declare-sort S4 0)
(declare-sort S5 0)
(declare-sort S6 0)
(declare-sort S7 0)
(declare-sort S8 0)
(declare-sort S9 0)
(declare-sort S10 0)
(declare-sort S11 0)
(declare-sort S12 0)
(declare-sort S13 0)
(declare-sort S14 0)
(declare-sort S15 0)
(declare-sort S16 0)
(declare-sort S17 0)
(declare-sort S18 0)
(declare-sort S19 0)
(declare-sort S20 0)
(declare-sort S21 0)
(declare-sort S22 0)
(declare-fun f1 () S1)
(declare-fun f2 () S1)
(declare-fun f3 (S2 S3) S1)
(declare-fun f4 (S4 S2) S2)
(declare-fun f5 (S5 S6) S4)
(declare-fun f6 () S5)
(declare-fun f7 (S7 S8) S6)
(declare-fun f8 () S7)
(declare-fun f9 () S8)
(declare-fun f10 (S9 S2) S4)
(declare-fun f11 () S9)
(declare-fun f12 () S2)
(declare-fun f13 (S10 S8) S2)
(declare-fun f14 () S10)
(declare-fun f15 () S8)
(declare-fun f16 (S11 S6) S2)
(declare-fun f17 () S11)
(declare-fun f18 () S6)
(declare-fun f19 () S2)
(declare-fun f20 (S3) S3)
(declare-fun f21 (S12 S13) S3)
(declare-fun f22 (S8) S12)
(declare-fun f23 () S8)
(declare-fun f24 () S13)
(declare-fun f25 (S14 S15) S1)
(declare-fun f26 (S8 S8 S2) S14)
(declare-fun f27 () S8)
(declare-fun f28 (S13) S15)
(declare-fun f29 (S8 S16) S1)
(declare-fun f30 () S16)
(declare-fun f31 (S13 S17) S1)
(declare-fun f32 () S17)
(declare-fun f33 (S3) S3)
(declare-fun f34 (S8 S2) S14)
(declare-fun f35 (S8 S2) S14)
(declare-fun f36 (S8) S3)
(declare-fun f37 (S6 S18) S1)
(declare-fun f38 (S7 S16) S18)
(declare-fun f39 () S16)
(declare-fun f40 () S11)
(declare-fun f41 (S19 S13) S13)
(declare-fun f42 (S20 S14) S19)
(declare-fun f43 () S20)
(declare-fun f44 (S3 S2) S1)
(declare-fun f45 (S3) S3)
(declare-fun f46 (S13) S3)
(declare-fun f47 (S22 S21) S7)
(declare-fun f48 () S22)
(assert (not (= f1 f2)))
(assert (let ((?v_0 (f4 (f5 f6 (f7 f8 f9)) (f4 (f10 f11 f12) (f4 (f10 f11 (f13 f14 f15)) (f4 (f10 f11 (f16 f17 f18)) f19)))))) (not (=> (= (f3 ?v_0 (f20 (f21 (f22 f23) f24))) f1) (= (f25 (f26 f27 f9 ?v_0) (f28 f24)) f1)))))
(assert (not (= (f29 f9 f30) f1)))
(assert (= (f31 f24 f32) f1))
(assert (forall ((?v0 S13) (?v1 S8)) (=> (= (f31 ?v0 f32) f1) (= (= (f3 (f16 f17 (f7 f8 ?v1)) (f20 (f21 (f22 f23) ?v0))) f1) (= (f29 ?v1 f30) f1)))))
(assert (forall ((?v0 S8) (?v1 S2) (?v2 S2) (?v3 S2) (?v4 S2) (?v5 S13)) (=> (= (f25 (f26 f27 ?v0 (f4 (f5 f6 (f7 f8 ?v0)) (f4 (f10 f11 ?v1) (f4 (f10 f11 ?v2) (f4 (f10 f11 ?v3) ?v4))))) (f28 ?v5)) f1) (= (f3 ?v3 (f20 (f21 (f22 f23) ?v5))) f1))))
(assert (forall ((?v0 S8) (?v1 S8) (?v2 S6) (?v3 S2) (?v4 S2) (?v5 S2) (?v6 S2) (?v7 S13)) (=> (= (f25 (f26 ?v0 ?v1 (f4 (f5 f6 ?v2) (f4 (f10 f11 ?v3) (f4 (f10 f11 ?v4) (f4 (f10 f11 ?v5) ?v6))))) (f28 ?v7)) f1) (= (f3 ?v6 (f20 (f21 (f22 f23) ?v7))) f1))))
(assert (forall ((?v0 S8) (?v1 S13)) (=> (= (f29 ?v0 f30) f1) (= (f3 (f16 f17 (f7 f8 ?v0)) (f21 (f22 f23) ?v1)) f1))))
(assert (forall ((?v0 S8) (?v1 S13)) (= (f3 (f16 f17 (f7 f8 ?v0)) (f21 (f22 ?v0) ?v1)) f1)))
(assert (= (f29 f23 f30) f1))
(assert (forall ((?v0 S8) (?v1 S8) (?v2 S2) (?v3 S13)) (=> (= (f25 (f26 ?v0 ?v1 ?v2) (f28 ?v3)) f1) (=> (=> (= (f3 ?v2 (f20 (f21 (f22 f23) ?v3))) f1) false) false))))
(assert (forall ((?v0 S2) (?v1 S2) (?v2 S3)) (let ((?v_0 (f20 ?v2))) (=> (= (f3 (f4 (f10 f11 ?v0) ?v1) ?v_0) f1) (=> (=> (= (f3 ?v0 ?v_0) f1) (=> (= (f3 ?v1 ?v_0) f1) false)) false)))))
(assert (forall ((?v0 S8) (?v1 S8) (?v2 S2) (?v3 S13)) (=> (= (f25 (f26 ?v0 ?v1 ?v2) (f28 ?v3)) f1) (= (f3 ?v2 (f21 (f22 f23) ?v3)) f1))))
(assert (forall ((?v0 S8) (?v1 S8) (?v2 S2) (?v3 S13)) (=> (= (f25 (f26 ?v0 ?v1 ?v2) (f28 ?v3)) f1) (= (f3 ?v2 (f21 (f22 ?v0) ?v3)) f1))))
(assert (forall ((?v0 S2) (?v1 S3)) (=> (= (f3 ?v0 ?v1) f1) (= (f3 ?v0 (f20 ?v1)) f1))))
(assert (not (= (f29 f27 f30) f1)))
(assert (not (= f23 f27)))
(assert (not (= f27 f23)))
(assert (forall ((?v0 S8) (?v1 S6) (?v2 S2)) (not (= (f13 f14 ?v0) (f4 (f5 f6 ?v1) ?v2)))))
(assert (forall ((?v0 S2) (?v1 S3)) (let ((?v_0 (f20 ?v1))) (=> (= (f3 ?v0 (f20 ?v_0)) f1) (= (f3 ?v0 ?v_0) f1)))))
(assert (forall ((?v0 S3)) (let ((?v_0 (f20 ?v0))) (= (f20 ?v_0) ?v_0))))
(assert (forall ((?v0 S6) (?v1 S6)) (= (= (f16 f17 ?v0) (f16 f17 ?v1)) (= ?v0 ?v1))))
(assert (forall ((?v0 S2) (?v1 S2) (?v2 S2) (?v3 S2)) (= (= (f4 (f10 f11 ?v0) ?v1) (f4 (f10 f11 ?v2) ?v3)) (and (= ?v0 ?v2) (= ?v1 ?v3)))))
(assert (forall ((?v0 S6) (?v1 S2) (?v2 S6) (?v3 S2)) (= (= (f4 (f5 f6 ?v0) ?v1) (f4 (f5 f6 ?v2) ?v3)) (and (= ?v0 ?v2) (= ?v1 ?v3)))))
(assert (forall ((?v0 S8) (?v1 S8)) (= (= (f13 f14 ?v0) (f13 f14 ?v1)) (= ?v0 ?v1))))
(assert (forall ((?v0 S8) (?v1 S8) (?v2 S2) (?v3 S8) (?v4 S8) (?v5 S2)) (= (= (f26 ?v0 ?v1 ?v2) (f26 ?v3 ?v4 ?v5)) (and (= ?v0 ?v3) (and (= ?v1 ?v4) (= ?v2 ?v5))))))
(assert (forall ((?v0 S8) (?v1 S8)) (= (= (f7 f8 ?v0) (f7 f8 ?v1)) (= ?v0 ?v1))))
(assert (forall ((?v0 S2) (?v1 S2) (?v2 S3)) (let ((?v_0 (f20 ?v2))) (=> (= (f3 (f4 (f10 f11 ?v0) ?v1) ?v_0) f1) (= (f3 ?v1 ?v_0) f1)))))
(assert (forall ((?v0 S2) (?v1 S2) (?v2 S3)) (let ((?v_0 (f20 ?v2))) (=> (= (f3 (f4 (f10 f11 ?v0) ?v1) ?v_0) f1) (= (f3 ?v0 ?v_0) f1)))))
(assert (forall ((?v0 S2) (?v1 S2) (?v2 S6)) (not (= (f4 (f10 f11 ?v0) ?v1) (f16 f17 ?v2)))))
(assert (forall ((?v0 S6) (?v1 S2) (?v2 S2)) (not (= (f16 f17 ?v0) (f4 (f10 f11 ?v1) ?v2)))))
(assert (forall ((?v0 S6) (?v1 S2) (?v2 S3)) (let ((?v_0 (f20 ?v2))) (=> (= (f3 (f4 (f5 f6 ?v0) ?v1) ?v_0) f1) (=> (=> (= (f3 ?v1 ?v_0) f1) false) false)))))
(assert (forall ((?v0 S6) (?v1 S2) (?v2 S3)) (let ((?v_0 (f20 ?v2))) (=> (= (f3 (f4 (f5 f6 ?v0) ?v1) ?v_0) f1) (= (f3 ?v1 ?v_0) f1)))))
(assert (forall ((?v0 S6) (?v1 S2) (?v2 S6)) (not (= (f4 (f5 f6 ?v0) ?v1) (f16 f17 ?v2)))))
(assert (forall ((?v0 S6) (?v1 S6) (?v2 S2)) (not (= (f16 f17 ?v0) (f4 (f5 f6 ?v1) ?v2)))))
(assert (forall ((?v0 S2) (?v1 S2) (?v2 S6) (?v3 S2)) (not (= (f4 (f10 f11 ?v0) ?v1) (f4 (f5 f6 ?v2) ?v3)))))
(assert (forall ((?v0 S6) (?v1 S2) (?v2 S2) (?v3 S2)) (not (= (f4 (f5 f6 ?v0) ?v1) (f4 (f10 f11 ?v2) ?v3)))))
(assert (forall ((?v0 S8) (?v1 S6)) (not (= (f13 f14 ?v0) (f16 f17 ?v1)))))
(assert (forall ((?v0 S6) (?v1 S8)) (not (= (f16 f17 ?v0) (f13 f14 ?v1)))))
(assert (forall ((?v0 S2) (?v1 S2) (?v2 S8)) (not (= (f4 (f10 f11 ?v0) ?v1) (f13 f14 ?v2)))))
(assert (forall ((?v0 S8) (?v1 S2) (?v2 S2)) (not (= (f13 f14 ?v0) (f4 (f10 f11 ?v1) ?v2)))))
(assert (forall ((?v0 S6) (?v1 S2) (?v2 S8)) (not (= (f4 (f5 f6 ?v0) ?v1) (f13 f14 ?v2)))))
(assert (forall ((?v0 S13) (?v1 S8)) (=> (= (f31 ?v0 f32) f1) (= (= (f3 (f16 f17 (f7 f8 ?v1)) (f33 (f21 (f22 f23) ?v0))) f1) (= (f29 ?v1 f30) f1)))))
(assert (forall ((?v0 S8) (?v1 S2) (?v2 S13)) (=> (= (f25 (f34 ?v0 ?v1) (f28 ?v2)) f1) (=> (= (f29 ?v0 f30) f1) (= (f3 ?v1 (f21 (f22 f23) ?v2)) f1)))))
(assert (forall ((?v0 S8) (?v1 S2) (?v2 S13)) (let ((?v_0 (f33 (f21 (f22 f23) ?v2)))) (=> (= (f3 (f4 (f5 f6 (f7 f8 ?v0)) ?v1) ?v_0) f1) (=> (= (f29 ?v0 f30) f1) (= (f3 ?v1 ?v_0) f1))))))
(assert (forall ((?v0 S8) (?v1 S2) (?v2 S13)) (=> (not (= ?v0 f23)) (=> (= (f25 (f35 ?v0 ?v1) (f28 ?v2)) f1) (= (f3 ?v1 (f21 (f22 ?v0) ?v2)) f1)))))
(assert (forall ((?v0 S8)) (= (f3 (f16 f17 (f7 f8 ?v0)) (f36 ?v0)) f1)))
(assert (forall ((?v0 S8) (?v1 S6) (?v2 S2) (?v3 S8) (?v4 S6) (?v5 S2) (?v6 S13)) (let ((?v_0 (f10 f11 (f16 f17 ?v4)))) (=> (= (f25 (f26 f27 ?v0 (f4 (f5 f6 ?v1) (f4 (f10 f11 ?v2) (f4 (f10 f11 (f13 f14 ?v3)) (f4 ?v_0 ?v5))))) (f28 ?v6)) f1) (=> (= (f31 ?v6 f32) f1) (and (not (= (f37 ?v4 (f38 f8 f39)) f1)) (and (= ?v5 (f4 (f5 f6 (f7 f8 ?v3)) (f4 ?v_0 (f13 f14 ?v0)))) (= ?v1 (f7 f8 ?v0)))))))))
(assert (forall ((?v0 S13) (?v1 S8) (?v2 S8) (?v3 S6) (?v4 S8) (?v5 S6) (?v6 S2)) (let ((?v_1 (f16 f40 ?v3)) (?v_0 (f10 f11 (f13 f14 ?v4))) (?v_2 (f28 ?v0))) (=> (= (f31 ?v0 f32) f1) (=> (not (= ?v1 f27)) (=> (= (f25 (f26 ?v2 ?v1 (f4 (f5 f6 (f7 f8 ?v1)) (f4 (f10 f11 ?v_1) (f4 ?v_0 (f4 (f10 f11 (f16 f17 ?v5)) ?v6))))) ?v_2) f1) (=> (= (f25 (f26 ?v1 f27 (f4 (f10 f11 (f13 f14 ?v1)) (f4 ?v_0 ?v_1))) ?v_2) f1) (= (f31 (f41 (f42 f43 (f26 ?v1 ?v4 ?v6)) ?v0) f32) f1))))))))
(assert (forall ((?v0 S3) (?v1 S2) (?v2 S6)) (let ((?v_0 (f45 ?v0))) (=> (= (f44 ?v_0 ?v1) f1) (=> (= (f44 ?v0 (f16 f17 ?v2)) f1) (= (f44 ?v_0 (f4 (f5 f6 ?v2) ?v1)) f1))))))
(assert (forall ((?v0 S2) (?v1 S13)) (=> (= (f3 ?v0 (f20 (f21 (f22 f23) ?v1))) f1) (= (f3 ?v0 (f46 ?v1)) f1))))
(assert (forall ((?v0 S21) (?v1 S8) (?v2 S13)) (= (f3 (f16 f17 (f7 (f47 f48 ?v0) ?v1)) (f21 (f22 f23) ?v2)) f1)))
(assert (forall ((?v0 S2) (?v1 S3)) (=> (= (f3 ?v0 ?v1) f1) (= (f3 ?v0 (f33 ?v1)) f1))))
(assert (forall ((?v0 S3) (?v1 S2)) (=> (= (f44 ?v0 ?v1) f1) (= (f44 (f45 ?v0) ?v1) f1))))
(assert (forall ((?v0 S2) (?v1 S2) (?v2 S3)) (let ((?v_0 (f33 ?v2))) (=> (= (f3 (f4 (f10 f11 ?v0) ?v1) ?v_0) f1) (=> (=> (= (f3 ?v0 ?v_0) f1) (=> (= (f3 ?v1 ?v_0) f1) false)) false)))))
(assert (forall ((?v0 S2) (?v1 S2) (?v2 S13)) (let ((?v_0 (f46 ?v2))) (=> (= (f3 (f4 (f10 f11 ?v0) ?v1) ?v_0) f1) (=> (=> (= (f3 ?v0 ?v_0) f1) (=> (= (f3 ?v1 ?v_0) f1) false)) false)))))
(assert (forall ((?v0 S3) (?v1 S2) (?v2 S2)) (let ((?v_0 (f45 ?v0))) (=> (= (f44 ?v_0 ?v1) f1) (=> (= (f44 ?v_0 ?v2) f1) (= (f44 ?v_0 (f4 (f10 f11 ?v1) ?v2)) f1))))))
(assert (forall ((?v0 S3) (?v1 S8)) (= (f44 (f45 ?v0) (f13 f14 ?v1)) f1)))
(assert (forall ((?v0 S8) (?v1 S13)) (= (f3 (f16 f17 (f7 f8 ?v0)) (f46 ?v1)) f1)))
(assert (forall ((?v0 S21) (?v1 S8) (?v2 S13)) (= (f3 (f16 f17 (f7 (f47 f48 ?v0) ?v1)) (f46 ?v2)) f1)))
(assert (forall ((?v0 S21) (?v1 S8) (?v2 S8)) (= (f3 (f16 f17 (f7 (f47 f48 ?v0) ?v1)) (f36 ?v2)) f1)))
(assert (forall ((?v0 S8) (?v1 S2) (?v2 S8) (?v3 S2)) (not (= (f35 ?v0 ?v1) (f34 ?v2 ?v3)))))
(assert (forall ((?v0 S8) (?v1 S2) (?v2 S8) (?v3 S2)) (not (= (f34 ?v0 ?v1) (f35 ?v2 ?v3)))))
(assert (forall ((?v0 S3)) (let ((?v_0 (f33 ?v0))) (= (f33 ?v_0) ?v_0))))
(assert (forall ((?v0 S8) (?v1 S2) (?v2 S13)) (= (f46 (f41 (f42 f43 (f35 ?v0 ?v1)) ?v2)) (f46 ?v2))))
(assert (forall ((?v0 S6) (?v1 S6)) (= (= (f16 f40 ?v0) (f16 f40 ?v1)) (= ?v0 ?v1))))
(assert (forall ((?v0 S8) (?v1 S2) (?v2 S8) (?v3 S2)) (= (= (f35 ?v0 ?v1) (f35 ?v2 ?v3)) (and (= ?v0 ?v2) (= ?v1 ?v3)))))
(check-sat)
(exit)
